WARNING: for repeatability, setting FPU to use double precision
============================[ Problem Statistics ]=============================
|                                                                             |
|  Number of variables:            50                                         |
|  Number of clauses:             218                                         |
|  Parse time:                   0.00 s                                       |
|                                                                             |
============================[ Search Statistics ]==============================
| Conflicts |          ORIGINAL         |          LEARNT          | Progress |
|           |    Vars  Clauses Literals |    Limit  Clauses Lit/Cl |          |
===============================================================================
|       100 |      48      215      645 |       79       42      4 |  4.042 % |
===============================================================================
restarts              : 2
conflicts             : 101            (62616 /sec)
decisions             : 133            (0.00 % random) (82455 /sec)
propagations          : 1521           (942963 /sec)
conflict literals     : 426            (20.22 % deleted)
Memory used           : 20.00 MB
CPU time              : 0.001613 s

SATISFIABLE
